computational_data/real_data/solutions/iris_trial_013_lex.sol
Optimal - objective value 7.60000000
      0 r_0                         1                0.966667
      1 r_1                         0                0.966667
      2 r_2                         0                0.966667
      3 r_3                         0                0.966667
      4 r_4                         0                0.966667
      5 r_5                         0                0.966667
      6 r_6                         0                0.933333
      7 r_7                         0                0.933333
      8 r_8                         1                0.966667
      9 r_9                         0                0.966667
     10 r_10                        0                0.966667
     11 r_11                        0                0.966667
     12 r_12                        0                0.933333
     13 r_13                        0                0.966667
     14 r_14                        0                0.966667
     15 r_15                        0                0.933333
     16 r_16                        0                0.933333
     17 r_17                        0                0.966667
     18 r_18                        1                0.933333
     19 r_19                        0                0.966667
     20 r_20                        1                0.933333
     21 r_21                        0                0.933333
     22 r_22                        0                0.933333
     23 b_0                         0                0.966667
     24 b_1                         0                0.966667
     25 b_2                         0                0.966667
     26 b_3                         1                0.966667
     27 b_4                         0                0.966667
     28 b_5                         0                0.966667
     29 b_6                         0                0.933333
     30 b_7                         0                0.933333
     31 b_8                         0                0.966667
     32 b_9                         0                0.966667
     33 b_10                        0                0.966667
     34 b_11                        0                0.966667
     35 b_12                        1                0.933333
     36 b_13                        0                0.966667
     37 b_14                        0                0.966667
     38 b_15                        0                0.933333
     39 b_16                        0                0.933333
     40 b_17                        0                0.966667
     41 b_18                        0                0.933333
     42 b_19                        1                0.966667
     43 b_20                        0                0.933333
     44 b_21                        1                0.933333
     45 b_22                        0                0.933333
