computational_data/real_data/logs/iris_trial_013_lex.log
Welcome to the CBC MILP Solver 
Version: 2.10.12 
Build Date: Aug 20 2024 

command line - /opt/homebrew/bin/cbc computational_data/real_data/lp/iris_trial_013_lex.lp seconds 10.0 solve solu computational_data/real_data/solutions/iris_trial_013_lex.sol (default strategy 1)
 CoinLpIO::readLp(): Maximization problem reformulated as minimization
Coin0009I Switching back to maximization to get correct duals etc
seconds was changed from 1e+100 to 10
Continuous objective value is 7.62444 - 0.00 seconds
Cgl0003I 0 fixed, 0 tightened bounds, 146 strengthened rows, 4 substitutions
Cgl0003I 0 fixed, 0 tightened bounds, 133 strengthened rows, 0 substitutions
Cgl0003I 0 fixed, 0 tightened bounds, 123 strengthened rows, 0 substitutions
Cgl0003I 0 fixed, 0 tightened bounds, 112 strengthened rows, 0 substitutions
Cgl0003I 0 fixed, 0 tightened bounds, 110 strengthened rows, 0 substitutions
Cgl0003I 0 fixed, 0 tightened bounds, 109 strengthened rows, 0 substitutions
Cgl0003I 0 fixed, 0 tightened bounds, 100 strengthened rows, 0 substitutions
Cgl0003I 0 fixed, 0 tightened bounds, 81 strengthened rows, 0 substitutions
Cgl0003I 0 fixed, 0 tightened bounds, 48 strengthened rows, 0 substitutions
Cgl0004I processed model has 164 rows, 42 columns (42 integer (42 of which binary)) and 1492 elements
Cbc0038I Initial state - 32 integers unsatisfied sum - 3.48889
Cbc0038I Pass   1: suminf.    0.00000 (0) obj. 7.6 iterations 37
Cbc0038I Solution found of 7.6
Cbc0038I Before mini branch and bound, 10 integers at bound fixed and 0 continuous
Cbc0038I Full problem 164 rows 42 columns, reduced to 108 rows 21 columns
Cbc0038I Mini branch and bound did not improve solution (0.02 seconds)
Cbc0038I Round again with cutoff of 7.60071
Cbc0038I Pass   2: suminf.    0.59867 (18) obj. 7.60071 iterations 27
Cbc0038I Pass   3: suminf.    0.51742 (26) obj. 7.60071 iterations 5
Cbc0038I Pass   4: suminf.    0.55116 (26) obj. 7.60071 iterations 33
Cbc0038I Pass   5: suminf.    0.51742 (26) obj. 7.60071 iterations 10
Cbc0038I Pass   6: suminf.    0.51742 (26) obj. 7.60071 iterations 26
Cbc0038I Pass   7: suminf.    0.51742 (26) obj. 7.60071 iterations 5
Cbc0038I Pass   8: suminf.    0.59867 (18) obj. 7.60071 iterations 30
Cbc0038I Pass   9: suminf.    0.51742 (26) obj. 7.60071 iterations 7
Cbc0038I Pass  10: suminf.    0.55116 (26) obj. 7.60071 iterations 22
Cbc0038I Pass  11: suminf.    0.51742 (26) obj. 7.60071 iterations 9
Cbc0038I Pass  12: suminf.    0.55116 (26) obj. 7.60071 iterations 7
Cbc0038I Pass  13: suminf.    0.51742 (26) obj. 7.60071 iterations 2
Cbc0038I Pass  14: suminf.    0.51742 (26) obj. 7.60071 iterations 32
Cbc0038I Pass  15: suminf.    0.51742 (26) obj. 7.60071 iterations 4
Cbc0038I Pass  16: suminf.    0.55591 (17) obj. 7.60071 iterations 24
Cbc0038I Pass  17: suminf.    0.59867 (18) obj. 7.60071 iterations 21
Cbc0038I Pass  18: suminf.    0.51742 (26) obj. 7.60071 iterations 13
Cbc0038I Pass  19: suminf.    0.55591 (17) obj. 7.60071 iterations 35
Cbc0038I Pass  20: suminf.    0.51742 (26) obj. 7.60071 iterations 22
Cbc0038I Pass  21: suminf.    0.55591 (17) obj. 7.60071 iterations 26
Cbc0038I Pass  22: suminf.    0.51742 (26) obj. 7.60071 iterations 9
Cbc0038I Pass  23: suminf.    0.55591 (17) obj. 7.60071 iterations 40
Cbc0038I Pass  24: suminf.    0.51742 (26) obj. 7.60071 iterations 10
Cbc0038I Pass  25: suminf.    0.59867 (18) obj. 7.60071 iterations 24
Cbc0038I Pass  26: suminf.    0.51742 (26) obj. 7.60071 iterations 10
Cbc0038I Pass  27: suminf.    0.59867 (18) obj. 7.60071 iterations 28
Cbc0038I Pass  28: suminf.    0.51742 (26) obj. 7.60071 iterations 16
Cbc0038I Pass  29: suminf.    0.55591 (17) obj. 7.60071 iterations 24
Cbc0038I Pass  30: suminf.    0.51742 (26) obj. 7.60071 iterations 8
Cbc0038I Pass  31: suminf.    0.51742 (26) obj. 7.60071 iterations 31
Cbc0038I No solution found this major pass
Cbc0038I Before mini branch and bound, 4 integers at bound fixed and 0 continuous
Cbc0038I Full problem 164 rows 42 columns, reduced to 142 rows 38 columns - 1 fixed gives 68, 26 - ok now
Cbc0038I Mini branch and bound did not improve solution (0.02 seconds)
Cbc0038I After 0.02 seconds - Feasibility pump exiting with objective of 7.6 - took 0.01 seconds
Cbc0012I Integer solution of 7.6 found by feasibility pump after 0 iterations and 0 nodes (0.02 seconds)
Cbc0031I 5 added rows had average density of 11
Cbc0013I At root node, 15 cuts changed objective from 7.6070372 to 7.6 in 1 passes
Cbc0014I Cut generator 0 (Probing) - 5 row cuts average 11.4 elements, 0 column cuts (0 active)  in 0.000 seconds - new frequency is 1
Cbc0014I Cut generator 1 (Gomory) - 3 row cuts average 30.0 elements, 0 column cuts (0 active)  in 0.000 seconds - new frequency is 1
Cbc0014I Cut generator 2 (Knapsack) - 0 row cuts average 0.0 elements, 0 column cuts (0 active)  in 0.000 seconds - new frequency is -100
Cbc0014I Cut generator 3 (Clique) - 1 row cuts average 10.0 elements, 0 column cuts (0 active)  in 0.000 seconds - new frequency is 1
Cbc0014I Cut generator 4 (MixedIntegerRounding2) - 0 row cuts average 0.0 elements, 0 column cuts (0 active)  in 0.000 seconds - new frequency is -100
Cbc0014I Cut generator 5 (FlowCover) - 0 row cuts average 0.0 elements, 0 column cuts (0 active)  in 0.000 seconds - new frequency is -100
Cbc0014I Cut generator 6 (TwoMirCuts) - 4 row cuts average 15.2 elements, 0 column cuts (0 active)  in 0.000 seconds - new frequency is -100
Cbc0014I Cut generator 7 (ZeroHalf) - 2 row cuts average 4.0 elements, 0 column cuts (0 active)  in 0.001 seconds - new frequency is -100
Cbc0001I Search completed - best objective 7.600000000000001, took 0 iterations and 0 nodes (0.03 seconds)
Cbc0035I Maximum depth 0, 0 variables fixed on reduced cost
Cuts at root node changed objective from 7.60704 to 7.6
Probing was tried 1 times and created 5 cuts of which 0 were active after adding rounds of cuts (0.000 seconds)
Gomory was tried 1 times and created 3 cuts of which 0 were active after adding rounds of cuts (0.000 seconds)
Knapsack was tried 1 times and created 0 cuts of which 0 were active after adding rounds of cuts (0.000 seconds)
Clique was tried 1 times and created 1 cuts of which 0 were active after adding rounds of cuts (0.000 seconds)
MixedIntegerRounding2 was tried 1 times and created 0 cuts of which 0 were active after adding rounds of cuts (0.000 seconds)
FlowCover was tried 1 times and created 0 cuts of which 0 were active after adding rounds of cuts (0.000 seconds)
TwoMirCuts was tried 1 times and created 4 cuts of which 0 were active after adding rounds of cuts (0.000 seconds)
ZeroHalf was tried 1 times and created 2 cuts of which 0 were active after adding rounds of cuts (0.001 seconds)

Result - Optimal solution found

Objective value:                7.60000000
Enumerated nodes:               0
Total iterations:               0
Time (CPU seconds):             0.03
Time (Wallclock seconds):       0.03

Total time (CPU seconds):       0.03   (Wallclock seconds):       0.03

